(set-info :status unsat)
(declare-datatypes ((T 0)) ((
  (f0)
  (f1 (proj0f1 T))
  (f2 (proj0f2 T)))))
(assert (exists ((y17122 T) (y17123 T) (y17119 T) (y17118 T) (y17126 T) (y17127 T) (y17124 T) (y17130 T) (y17132 T) (y17136 T) (y17129 T) (y17120 T) (y17131 T) (y17121 T) (y17134 T)) (forall ((x17147 T) (x17146 T) (x17145 T) (x17144 T) (x17143 T) (x17142 T) (x17141 T) (x17140 T) (x17139 T)) 
  (or (= y17118 (f1 y17118)) 
    (and (= y17119 (f1 y17120)) (= y17120 x17139) (= y17121 (f1 y17122)) (= y17122 (f1 y17119))) 
    (and (= y17123 (f1 y17124)) (= y17124 (f2 y17123))) 
    (and (= x17146 (f1 (f1 y17126))) (= y17126 (f2 x17146))) 
    (and (= y17127 (f2 x17144)) (= x17144 x17143) (= y17129 (f2 y17130)) (= y17130 (f1 y17127))) 
    (and (= y17131 (f1 y17132)) (= y17132 (f1 x17145)) (= x17145 (f1 y17134)) (= y17134 (f2 y17131))) (= x17140 (f1 x17140)) 
    (and (= y17136 x17147) (= x17141 x17142))))))
(check-sat)
